c colouring generated by benchmark framework
p edge 24 78
v 1 1
v 2 3
v 3 11
v 4 10
v 5 9
v 6 8
v 7 7
v 8 2
v 9 5
v 10 0
v 11 4
v 12 6
v 13 4
v 14 9
v 15 3
v 16 1
v 17 7
v 18 3
v 19 3
v 20 0
v 21 11
v 22 7
v 23 2
v 24 5
